
(set-logic HORN)
(define-fun zero_96 () Int 0)
(define-fun succ_94 ((x Int)) Int (+ x 1))
(declare-fun diseqInt (Int Int) Bool)
(declare-fun p_277 (Int Int) Bool)
(declare-fun iszero_94 (Int) Bool)
(declare-fun issucc_94 (Int) Bool)
(assert (forall ((x_45561 Int))
	(p_277 x_45561 (succ_94 x_45561))))
(assert (iszero_94 zero_96))
(assert (forall ((x_45563 Int))
	(issucc_94 (succ_94 x_45563))))
(assert (forall ((x_45564 Int))
	(diseqInt zero_96 (succ_94 x_45564))))
(assert (forall ((x_45565 Int))
	(diseqInt (succ_94 x_45565) zero_96)))
(assert (forall ((x_45566 Int) (x_45567 Int))
	(=> (diseqInt x_45566 x_45567) (diseqInt (succ_94 x_45566) (succ_94 x_45567)))))
(declare-datatypes ((Integer_7 0)) (((P_276 (projP_14 Int)) (N_81 (projN_14 Int)))))
(declare-fun diseqInteger_7 (Integer_7 Integer_7) Bool)
(declare-fun projP_15 (Int Integer_7) Bool)
(declare-fun projN_15 (Int Integer_7) Bool)
(declare-fun isP_9 (Integer_7) Bool)
(declare-fun isN_7 (Integer_7) Bool)
(assert (forall ((x_45568 Int))
	(projP_15 x_45568 (P_276 x_45568))))
(assert (forall ((x_45570 Int))
	(projN_15 x_45570 (N_81 x_45570))))
(assert (forall ((x_45572 Int))
	(isP_9 (P_276 x_45572))))
(assert (forall ((x_45573 Int))
	(isN_7 (N_81 x_45573))))
(assert (forall ((x_45574 Int) (x_45575 Int))
	(diseqInteger_7 (P_276 x_45574) (N_81 x_45575))))
(assert (forall ((x_45576 Int) (x_45577 Int))
	(diseqInteger_7 (N_81 x_45576) (P_276 x_45577))))
(assert (forall ((x_45578 Int) (x_45579 Int))
	(=> (diseqInt x_45578 x_45579) (diseqInteger_7 (P_276 x_45578) (P_276 x_45579)))))
(assert (forall ((x_45580 Int) (x_45581 Int))
	(=> (diseqInt x_45580 x_45581) (diseqInteger_7 (N_81 x_45580) (N_81 x_45581)))))
(declare-fun plus_96 (Int Int Int) Bool)
(assert (forall ((x_45524 Int) (z_1441 Int) (y_1596 Int))
	(=> (plus_96 x_45524 z_1441 y_1596) (plus_96 (succ_94 x_45524) (succ_94 z_1441) y_1596))))
(assert (forall ((x_45525 Int))
	(plus_96 x_45525 zero_96 x_45525)))
(declare-fun x_45512 (Integer_7 Int Int) Bool)
(assert (forall ((x_45514 Int) (z_1442 Int) (fail_21 Integer_7))
	(=> (x_45512 fail_21 x_45514 z_1442) (x_45512 fail_21 (succ_94 x_45514) (succ_94 z_1442)))))
(assert (forall ((x_45516 Int))
	(x_45512 (N_81 (succ_94 x_45516)) zero_96 (succ_94 x_45516))))
(assert (forall ((x_45515 Int))
	(x_45512 (P_276 (succ_94 x_45515)) (succ_94 x_45515) zero_96)))
(assert (x_45512 (P_276 zero_96) zero_96 zero_96))
(declare-fun plus_97 (Integer_7 Integer_7 Integer_7) Bool)
(assert (forall ((x_45539 Int) (x_45540 Int) (n_82 Int) (m_31 Int))
	(=> (and (plus_96 x_45539 (succ_94 zero_96) m_31) (plus_96 x_45540 x_45539 n_82)) (plus_97 (N_81 x_45540) (N_81 m_31) (N_81 n_82)))))
(assert (forall ((x_45541 Integer_7) (x_45542 Int) (n_83 Int) (m_31 Int))
	(=> (and (plus_96 x_45542 (succ_94 zero_96) m_31) (x_45512 x_45541 n_83 x_45542)) (plus_97 x_45541 (N_81 m_31) (P_276 n_83)))))
(assert (forall ((x_45544 Integer_7) (x_45545 Int) (o_4 Int) (m_32 Int))
	(=> (and (plus_96 x_45545 (succ_94 zero_96) o_4) (x_45512 x_45544 m_32 x_45545)) (plus_97 x_45544 (P_276 m_32) (N_81 o_4)))))
(assert (forall ((x_45548 Int) (n_84 Int) (m_32 Int))
	(=> (plus_96 x_45548 m_32 n_84) (plus_97 (P_276 x_45548) (P_276 m_32) (P_276 n_84)))))
(assert (forall ((x_45549 Integer_7) (x_45550 Integer_7) (x_45518 Integer_7) (y_1599 Integer_7))
	(=> (and true (diseqInteger_7 x_45549 x_45550) (plus_97 x_45549 x_45518 y_1599) (plus_97 x_45550 y_1599 x_45518)) false)))
(assert (forall ((x_45551 Int) (x_45552 Int) (x_45553 Int) (x_45554 Int) (x_45519 Int) (y_1600 Int) (z_1443 Int))
	(=> (and true (diseqInt x_45552 x_45554) (plus_96 x_45551 y_1600 z_1443) (plus_96 x_45552 x_45519 x_45551) (plus_96 x_45553 x_45519 y_1600) (plus_96 x_45554 x_45553 z_1443)) false)))
(assert (forall ((x_45555 Int) (x_45556 Int) (x_45520 Int) (y_1601 Int))
	(=> (and true (diseqInt x_45555 x_45556) (plus_96 x_45555 x_45520 y_1601) (plus_96 x_45556 y_1601 x_45520)) false)))
(assert (forall ((x_45557 Int) (x_45521 Int))
	(=> (and true (diseqInt x_45557 x_45521) (plus_96 x_45557 x_45521 zero_96)) false)))
(assert (forall ((x_45558 Int) (x_45522 Int))
	(=> (and true (diseqInt x_45558 x_45522) (plus_96 x_45558 zero_96 x_45522)) false)))
(check-sat)
